clasp version 2.1.1
Reading from stdin
Solving...
UNSATISFIABLE

Models      : 0     
Time        : 0.315s (Solving: 0.24s 1st Model: 0.00s Unsat: 0.24s)
CPU Time    : 0.760s
Choices     : 39219
Conflicts   : 36531
Restarts    : 19     (Average: 1922.63 Last: 12487)

Atoms       : 8443  
Rules       : 28709  (1: 28332 2: 360 3: 17)
Bodies      : 16021 
Equivalences: 4644   (Atom=Atom: 431 Body=Body: 0 Other: 4213)
Tight       : Yes

Variables   : 21780  (Eliminated:    0 Frozen: 6480)
Constraints : 32490  (Binary: 42.4% Ternary: 56.5% Other:  1.1%)
Lemmas      : 36971  (Binary:  0.5% Ternary:  1.2% Other: 98.3%)
  Conflict  : 36530  (Average Length: 12.3) 
  Loop      : 0      (Average Length: 0.0) 
  Other     : 441    (Average Length: 2.6)
  Deleted   : 14438 

============ PARALLEL STATISTICS ============

Threads     : 3
Winner      : 0
Distributed : 1341   (Ratio: 0.04 Average LBD: 3.57) 
Integrated  : 2632   (Ratio: 1.96 Unit: 83 Average Jumps: 1.90)
Splits      : 0
Problems    : 3      (Average Length: 0.00) 

